Instance: E200-17b.dat
Class:  3
  199 --- number of customers (no depot)
   39 --- number of vehicles
  404 --- number of items
Capacity - height - width of vehicles
   200     40     20
Node - x - y - demand
    0    35.0    35.0     0.0
    1    41.0    49.0    10.0
    2    35.0    17.0     7.0
    3    55.0    45.0    13.0
    4    55.0    20.0    19.0
    5    15.0    30.0    26.0
    6    25.0    30.0     3.0
    7    20.0    50.0     5.0
    8    10.0    43.0     9.0
    9    55.0    60.0    16.0
   10    30.0    60.0    16.0
   11    20.0    65.0    12.0
   12    50.0    35.0    19.0
   13    30.0    25.0    23.0
   14    15.0    10.0    20.0
   15    30.0     5.0     8.0
   16    10.0    20.0    19.0
   17     5.0    30.0     2.0
   18    20.0    40.0    12.0
   19    15.0    60.0    17.0
   20    45.0    65.0     9.0
   21    45.0    20.0    11.0
   22    45.0    10.0    18.0
   23    55.0     5.0    29.0
   24    65.0    35.0     3.0
   25    65.0    20.0     6.0
   26    45.0    30.0    17.0
   27    35.0    40.0    16.0
   28    41.0    37.0    16.0
   29    64.0    42.0     9.0
   30    40.0    60.0    21.0
   31    31.0    52.0    27.0
   32    35.0    69.0    23.0
   33    53.0    52.0    11.0
   34    65.0    55.0    14.0
   35    63.0    65.0     8.0
   36     2.0    60.0     5.0
   37    20.0    20.0     8.0
   38     5.0     5.0    16.0
   39    60.0    12.0    31.0
   40    40.0    25.0     9.0
   41    42.0     7.0     5.0
   42    24.0    12.0     5.0
   43    23.0     3.0     7.0
   44    11.0    14.0    18.0
   45     6.0    38.0    16.0
   46     2.0    48.0     1.0
   47     8.0    56.0    27.0
   48    13.0    52.0    36.0
   49     6.0    68.0    30.0
   50    47.0    47.0    13.0
   51    49.0    58.0    10.0
   52    27.0    43.0     9.0
   53    37.0    31.0    14.0
   54    57.0    29.0    18.0
   55    63.0    23.0     2.0
   56    53.0    12.0     6.0
   57    32.0    12.0     7.0
   58    36.0    26.0    18.0
   59    21.0    24.0    28.0
   60    17.0    34.0     3.0
   61    12.0    24.0    13.0
   62    24.0    58.0    19.0
   63    27.0    69.0    10.0
   64    15.0    77.0     9.0
   65    62.0    77.0    20.0
   66    49.0    73.0    25.0
   67    67.0     5.0    25.0
   68    56.0    39.0    36.0
   69    37.0    47.0     6.0
   70    37.0    56.0     5.0
   71    57.0    68.0    15.0
   72    47.0    16.0    25.0
   73    44.0    17.0     9.0
   74    46.0    13.0     8.0
   75    49.0    11.0    18.0
   76    49.0    42.0    13.0
   77    53.0    43.0    14.0
   78    61.0    52.0     3.0
   79    57.0    48.0    23.0
   80    56.0    37.0     6.0
   81    55.0    54.0    26.0
   82    15.0    47.0    16.0
   83    14.0    37.0    11.0
   84    11.0    31.0     7.0
   85    16.0    22.0    41.0
   86     4.0    18.0    35.0
   87    28.0    18.0    26.0
   88    26.0    52.0     9.0
   89    26.0    35.0    15.0
   90    31.0    67.0     3.0
   91    15.0    19.0     1.0
   92    22.0    22.0     2.0
   93    18.0    24.0    22.0
   94    26.0    27.0    27.0
   95    25.0    24.0    20.0
   96    22.0    27.0    11.0
   97    25.0    21.0    12.0
   98    19.0    21.0    10.0
   99    20.0    26.0     9.0
  100    18.0    18.0    17.0
  101    37.0    52.0     7.0
  102    49.0    49.0    30.0
  103    52.0    64.0    16.0
  104    20.0    26.0     9.0
  105    40.0    30.0    21.0
  106    21.0    47.0    15.0
  107    17.0    63.0    19.0
  108    31.0    62.0    23.0
  109    52.0    33.0    11.0
  110    51.0    21.0     5.0
  111    42.0    41.0    19.0
  112    31.0    32.0    29.0
  113     5.0    25.0    23.0
  114    12.0    42.0    21.0
  115    36.0    16.0    10.0
  116    52.0    41.0    15.0
  117    27.0    23.0     3.0
  118    17.0    33.0    41.0
  119    13.0    13.0     9.0
  120    57.0    58.0    28.0
  121    62.0    42.0     8.0
  122    42.0    57.0     8.0
  123    16.0    57.0    16.0
  124     8.0    52.0    10.0
  125     7.0    38.0    28.0
  126    27.0    68.0     7.0
  127    30.0    48.0    15.0
  128    43.0    67.0    14.0
  129    58.0    48.0     6.0
  130    58.0    27.0    19.0
  131    37.0    69.0    11.0
  132    38.0    46.0    12.0
  133    46.0    10.0    23.0
  134    61.0    33.0    26.0
  135    62.0    63.0    17.0
  136    63.0    69.0     6.0
  137    32.0    22.0     9.0
  138    45.0    35.0    15.0
  139    59.0    15.0    14.0
  140     5.0     6.0     7.0
  141    10.0    17.0    27.0
  142    21.0    10.0    13.0
  143     5.0    64.0    11.0
  144    30.0    15.0    16.0
  145    39.0    10.0    10.0
  146    32.0    39.0     5.0
  147    25.0    32.0    25.0
  148    25.0    55.0    17.0
  149    48.0    28.0    18.0
  150    56.0    37.0    10.0
  151    22.0    22.0    18.0
  152    36.0    26.0    26.0
  153    21.0    45.0    11.0
  154    45.0    35.0    30.0
  155    55.0    20.0    21.0
  156    33.0    34.0    19.0
  157    50.0    50.0    15.0
  158    55.0    45.0    16.0
  159    26.0    59.0    29.0
  160    40.0    66.0    26.0
  161    55.0    65.0    37.0
  162    35.0    51.0    16.0
  163    62.0    35.0    12.0
  164    62.0    57.0    31.0
  165    62.0    24.0     8.0
  166    21.0    36.0    19.0
  167    33.0    44.0    20.0
  168     9.0    56.0    13.0
  169    62.0    48.0    15.0
  170    66.0    14.0    22.0
  171    44.0    13.0    28.0
  172    26.0    13.0    12.0
  173    11.0    28.0     6.0
  174     7.0    43.0    27.0
  175    17.0    64.0    14.0
  176    41.0    46.0    18.0
  177    55.0    34.0    17.0
  178    35.0    16.0    29.0
  179    52.0    26.0    13.0
  180    43.0    26.0    22.0
  181    31.0    76.0    25.0
  182    22.0    53.0    28.0
  183    26.0    29.0    27.0
  184    50.0    40.0    19.0
  185    55.0    50.0    10.0
  186    54.0    10.0    12.0
  187    60.0    15.0    14.0
  188    47.0    66.0    24.0
  189    30.0    60.0    16.0
  190    30.0    50.0    33.0
  191    12.0    17.0    15.0
  192    15.0    14.0    11.0
  193    16.0    19.0    18.0
  194    21.0    48.0    17.0
  195    50.0    30.0    21.0
  196    51.0    42.0    27.0
  197    50.0    15.0    19.0
  198    48.0    21.0    20.0
  199    12.0    38.0     5.0
Node - number of items - h - w for each item
    0   0
    1   2    7   12    5    7
    2   3    7   14    8   13   15    6
    3   2   11    5   30    3
    4   2    5    7   18    3
    5   2   14    7   15    6
    6   1    5    9
    7   2    6    9   15    4
    8   1   18    4
    9   1    4   13
   10   3   14    5   31    4   22    3
   11   3    6   11   12    5   14    4
   12   2    6    8    6    8
   13   3   31    3   28    3   19    2
   14   3    7   10    7   10   14    5
   15   3   31    4   20    2   18    2
   16   3    8    6   17    2   13    2
   17   1    7   12
   18   1    6    7
   19   3    6    9    6    7   12    5
   20   3    4    7    6    6   22    4
   21   3    5   11    6    8   21    3
   22   1   25    3
   23   1    8    8
   24   3   16    8    7    8   12    5
   25   2   18    3   28    2
   26   3   15    5    9    4   19    3
   27   3    7   10   15    6   15    3
   28   1   31    2
   29   1   16    4
   30   1   21    2
   31   1   13    5
   32   2   13    5   28    2
   33   2    5   12    5   12
   34   1   17    3
   35   3    5   12    7    7   23    4
   36   3   12    8   16    5   13    5
   37   1   30    3
   38   2    7    9    6    9
   39   1   16    3
   40   3    6   13    7    9   14    4
   41   3    6   12    9    8    5    8
   42   3    5   15    7   14   14    6
   43   3   16    8   14    4   18    2
   44   3    5    7   29    3   24    2
   45   3    4    9   13    5   23    3
   46   1    7   12
   47   1    4   14
   48   1    4    9
   49   3    7   10    7    9    9    5
   50   1    7   11
   51   2   12    5   19    2
   52   3   12    8    4    8   12    6
   53   1    5   12
   54   3   13    4   12    4   13    3
   55   2   22    4   19    3
   56   3    6   11    9    8   17    3
   57   2    8   15   12    8
   58   1   29    2
   59   3    6   15    5   15    4   12
   60   2   21    3   24    2
   61   3    5   13   12    7   12    5
   62   3    7   13   22    4   12    4
   63   1    9    8
   64   2    5   12   13    5
   65   1   11    4
   66   3    5   14    4   13   20    2
   67   2    7    8   20    3
   68   3    5   15    8    6   19    4
   69   1   24    2
   70   3    8   12   12    5   32    4
   71   3    6    9   11    6   15    5
   72   1    8    7
   73   1   19    3
   74   2    5   13   21    3
   75   1   11    8
   76   3    5   14   15    5   18    4
   77   1   30    2
   78   1   11    4
   79   1    7    9
   80   2    6   16    9    8
   81   1    5    8
   82   2   15    7    8    4
   83   2   16    7    5    7
   84   2   11    5   31    3
   85   1   12    5
   86   1    5    9
   87   2    7    8   10    6
   88   1   10    5
   89   1   16    2
   90   3    6   11   15    8   13    5
   91   2    7   14   14    7
   92   2    9    6   16    4
   93   1   16    8
   94   2    5   16   10    5
   95   1   15    6
   96   3    6   13   16    5   18    3
   97   3   10    6   28    4   15    4
   98   2    9    4   15    3
   99   2    8   10    9    7
  100   3    6    8   11    6   20    2
  101   3    5   16    9    7    8    7
  102   3    8    7   12    4   30    2
  103   3    5    9   14    7   15    5
  104   1   17    2
  105   3    5   13    5    8   14    2
  106   3    7    7   13    4   24    3
  107   2    5   10   14    5
  108   2   15    8   14    6
  109   2   13    8   15    7
  110   2   23    3   24    2
  111   2   13    3   14    2
  112   1   22    3
  113   3    4   10    6    9   14    3
  114   1   12    2
  115   1    6    8
  116   2   12    5   19    2
  117   2    7   10   12    8
  118   3    5   12    9    7   17    3
  119   2   14    6   16    3
  120   2    8    9   29    3
  121   1    4    7
  122   3    7    8    5    7   28    4
  123   1   15    7
  124   2    6   10   14    4
  125   3   13    6   10    5   25    3
  126   3   11    6    8    6    6    6
  127   2   30    3   18    3
  128   1    7   11
  129   3   16    5   21    3   21    3
  130   1   10    5
  131   2   11    5    9    5
  132   3    5   15    4    9    7    8
  133   2    7   14   13    6
  134   3   16    5   29    3   25    2
  135   1    8    7
  136   1    6    6
  137   3    7    7   26    3   18    3
  138   2    4    9   12    3
  139   2   11    7    8    7
  140   3    6   14   14    4   28    2
  141   2    4   15   17    2
  142   2    7    8   31    3
  143   2    6   14   12    8
  144   3    5   12   10    5   20    3
  145   2    6    9   22    3
  146   2    6   15   17    2
  147   1   23    3
  148   3    7   14    4    8   13    3
  149   2   14    8   17    2
  150   1    9    5
  151   2    5    8   19    4
  152   3   12    7   13    6   31    3
  153   3    7    9   10    5   30    3
  154   1    5   13
  155   1   28    3
  156   1   32    3
  157   2    4    7   15    5
  158   3   16    7   17    4   22    3
  159   1   14    4
  160   3   21    4   14    4   20    3
  161   1   12    5
  162   1   18    3
  163   1    7   10
  164   3    7   11   14    8   12    7
  165   3    6   12   26    3   14    3
  166   3   11    6   13    5   12    5
  167   2    7   12   24    3
  168   1   13    5
  169   2   27    3   23    3
  170   2    7   16    6   11
  171   1   15    4
  172   3    6   13    8    5   22    3
  173   2    9    7   17    2
  174   1    4    8
  175   1    7    7
  176   2   10    4   16    3
  177   1    6   15
  178   1    5    7
  179   1   11    6
  180   3    7   10   11    6   15    4
  181   2   12    7   12    5
  182   2   14    8   15    7
  183   3   10    6   11    4   15    3
  184   3    6    6   20    4   20    3
  185   1    7    8
  186   2    5   10   11    6
  187   3    8   13    6   12   10    6
  188   2   29    3   16    3
  189   3    8    9   15    4   18    3
  190   2   10    7   15    5
  191   2    8   15   12    6
  192   2   10    7   10    4
  193   3    4   10   15    6    5    6
  194   3   14    6   29    3   16    3
  195   2    9    7   29    3
  196   3    6   14   29    4   25    3
  197   1    4   10
  198   2    8   15    6    9
  199   2    9    6   14    4
